logs/2026_03_24_00_39_27_set_big_5-7_big_5-7_s001_g001_max.log
[2026-03-24T00:39:27.733Z] Pipeline "set_big_5-7_big_5-7_s001_g001" → 2026_03_24_00_39_27_set_big_5-7_big_5-7_s001_g001_max.sol
Set parameter WLSAccessID
Set parameter WLSSecret
Set parameter LicenseID to value 2792458
Set parameter LogFile to value "gurobi.log"
Using license file /root/gurobi.lic
Academic license 2792458 - for non-commercial use only - registered to an___@studenti.unipg.it

Gurobi Optimizer version 13.0.1 build v13.0.1rc0 (linux64 - "Ubuntu 24.04.4 LTS")
Copyright (c) 2026, Gurobi Optimization, LLC

Warning: Duplicate section found (read 'binary') - Is a variable name equal to an LP file format keyword?
Warning: Duplicate section found (read 'binary') - Is a variable name equal to an LP file format keyword?
Warning: Duplicate section found (read 'binary') - Is a variable name equal to an LP file format keyword?
Warning: Duplicate section found (read 'binary') - Is a variable name equal to an LP file format keyword?
Warning: Duplicate section found (read 'binary') - Is a variable name equal to an LP file format keyword?
Warning: Duplicate section found (read 'binary') - Is a variable name equal to an LP file format keyword?
Warning: Duplicate section found (read 'binary') - Is a variable name equal to an LP file format keyword?
Warning: Duplicate section found (read 'binary') - Is a variable name equal to an LP file format keyword?
Warning: Duplicate section found (read 'binary') - Is a variable name equal to an LP file format keyword?
Warning: Duplicate section found (read 'binary') - Is a variable name equal to an LP file format keyword?
Warning: Further warnings of this type will be omitted.
Read LP format model from file /root/bgw/data/uploads/2026_03_24_00_39_27_set_big_5-7_big_5-7_s001_g001_max.lp
Reading time = 0.01 seconds
: 1541 rows, 286 columns, 4519 nonzeros

Using Gurobi shared library /opt/gurobi1301/linux64/lib/libgurobi.so.13.0.1

CPU model: AMD EPYC-Genoa Processor, instruction set [SSE2|AVX|AVX2|AVX512]
Thread count: 16 physical cores, 16 logical processors, using up to 16 threads

Academic license 2792458 - for non-commercial use only - registered to an___@studenti.unipg.it
Optimize a model with 1541 rows, 286 columns and 4519 nonzeros (Max)
Model fingerprint: 0xcf7b031f
Model has 136 linear objective coefficients
Variable types: 149 continuous, 137 integer (137 binary)
Coefficient statistics:
  Matrix range     [1e+00, 1e+01]
  Objective range  [1e+00, 1e+00]
  Bounds range     [1e+00, 1e+00]
  RHS range        [1e+00, 2e+01]

Found heuristic solution: objective 136.0000000
Presolve removed 900 rows and 169 columns
Presolve time: 0.01s
Presolved: 641 rows, 117 columns, 2013 nonzeros
Variable types: 0 continuous, 117 integer (108 binary)
Found heuristic solution: objective 314.0000000

Root relaxation: objective 9.940000e+02, 134 iterations, 0.01 seconds (0.00 work units)

    Nodes    |    Current Node    |     Objective Bounds      |     Work
 Expl Unexpl |  Obj  Depth IntInf | Incumbent    BestBd   Gap | It/Node Time

     0     0  994.00000    0   46  314.00000  994.00000   217%     -    0s
H    0     0                     330.0000000  994.00000   201%     -    0s
H    0     0                     342.0000000  994.00000   191%     -    0s
H    0     0                     357.0000000  994.00000   178%     -    0s
     0     0  994.00000    0   45  357.00000  994.00000   178%     -    0s
H    0     0                     364.0000000  994.00000   173%     -    0s
     0     0  994.00000    0   44  364.00000  994.00000   173%     -    0s
     0     0  994.00000    0   43  364.00000  994.00000   173%     -    0s
H    0     0                     376.0000000  994.00000   164%     -    0s
     0     0  994.00000    0   43  376.00000  994.00000   164%     -    0s
     0     0  994.00000    0   44  376.00000  994.00000   164%     -    0s
     0     0  994.00000    0   44  376.00000  994.00000   164%     -    0s
     0     0  994.00000    0   44  376.00000  994.00000   164%     -    0s
     0     0  991.18182    0   44  376.00000  991.18182   164%     -    0s
     0     0  991.18182    0   42  376.00000  991.18182   164%     -    0s
     0     0  963.00000    0   44  376.00000  963.00000   156%     -    0s
     0     0  963.00000    0   32  376.00000  963.00000   156%     -    0s
     0     0  963.00000    0   43  376.00000  963.00000   156%     -    0s
     0     0  963.00000    0   43  376.00000  963.00000   156%     -    0s
     0     0  963.00000    0   43  376.00000  963.00000   156%     -    0s
     0     0  963.00000    0   31  376.00000  963.00000   156%     -    0s
     0     0  963.00000    0   31  376.00000  963.00000   156%     -    0s
     0     0  963.00000    0   31  376.00000  963.00000   156%     -    0s
     0     2  963.00000    0   31  376.00000  963.00000   156%     -    0s
H 3949  2009                     388.0000000  886.09091   128%  18.5    0s
 120841  1157 infeasible   37       388.00000  429.35390  10.7%  16.2    5s

Cutting planes:
  Inf proof: 1

Explored 124399 nodes (2018185 simplex iterations) in 5.14 seconds (6.58 work units)
Thread count was 16 (of 16 available processors)

Solution count 10: 388 376 376 ... 136

Optimal solution found (tolerance 1.00e-04)
Best objective 3.880000000000e+02, best bound 3.880000000000e+02, gap 0.0000%

Wrote result file '/root/bgw/data/results/2026_03_24_00_39_27_set_big_5-7_big_5-7_s001_g001_max.sol'

